language ESSENCE' 1.0

letting jobs = 102
letting horizon = 841
letting resourcesRenew = 2
letting resourcesNonrenew = 2
letting resourceLimits = [21, 19, 165, 161]
letting successors = [[2, 3, 4, 5, 6, 7, 8, 9, 10, 11, 12, 14, 15, 19, 21, 22, 24, 28, 36], [48, 47, 41, 40, 38, 37, 34, 33, 27, 23, 18], [47, 45, 40, 30, 25, 17, 13], [57, 52, 48, 46, 40, 35, 27, 23, 20, 17], [52, 47, 46, 43, 39, 35, 33, 32, 30, 17], [59, 55, 51, 50, 48, 47, 46, 45, 40, 38, 35, 32, 29, 27], [59, 58, 57, 54, 52, 46, 45, 43, 35, 33, 32, 26], [57, 52, 46, 39, 37, 35, 23, 20], [58, 57, 52, 48, 33, 25, 16], [59, 52, 50, 46, 41, 40, 37, 35, 32, 27, 26], [55, 48, 38, 32, 27, 18], [62, 59, 56, 52, 46, 45, 40, 37, 32, 31, 26], [57, 52, 51, 48, 46, 41, 32, 20], [62, 61, 52, 51, 50, 47, 46, 44, 43, 37, 25], [62, 56, 54, 52, 48, 45, 44, 42, 41, 39], [73, 59, 55, 51, 46, 45, 35, 32], [81, 65, 62, 59, 58, 56, 51, 50, 44, 42, 38], [79, 60, 58, 57, 52, 51, 46, 39, 35], [66, 65, 57, 52, 50, 48, 41, 35], [101, 79, 73, 65, 63, 62, 61, 60, 59, 58, 55, 54, 44, 43], [81, 78, 72, 65, 61, 59, 55, 48, 42, 38], [73, 62, 61, 59, 56, 51, 46, 44, 40], [73, 72, 59, 55, 51, 45, 32], [81, 80, 79, 78, 72, 66, 65, 62, 61, 60, 56, 55, 52, 51, 47], [80, 79, 78, 77, 66, 65, 59, 56, 54, 39], [79, 78, 77, 65, 55, 51, 48, 42, 39], [79, 66, 65, 44, 42, 39], [81, 79, 61, 59, 55, 50, 46, 42], [81, 80, 79, 78, 77, 72, 67, 65, 63, 61, 60, 52, 49], [81, 80, 79, 65, 59, 57, 54, 51, 50], [81, 79, 78, 72, 65, 57, 55, 42], [81, 80, 78, 77, 66, 61, 42], [101, 79, 77, 67, 66, 65, 63, 61, 60, 55, 49], [101, 81, 80, 77, 72, 67, 65, 62, 61, 54, 49], [101, 62, 56, 49, 44], [101, 81, 80, 79, 78, 76, 73, 68, 67, 65, 60, 53], [101, 99, 79, 78, 77, 67, 66, 63, 60, 49], [101, 99, 79, 77, 76, 73, 68, 67, 66, 60, 54, 53], [101, 99, 81, 73, 72, 67, 63, 49], [96, 80, 79, 76, 72, 68, 67, 65, 60, 53], [95, 80, 79, 77, 76, 75, 67, 64, 63, 55], [101, 99, 67, 63, 60, 49], [92, 81, 77, 74, 66, 56, 53], [99, 98, 95, 94, 91, 87, 86, 85, 84, 80, 78, 77, 76, 75, 74, 72, 69, 68], [101, 98, 94, 93, 92, 90, 89, 84, 80, 78, 70, 69, 67, 66, 65], [101, 100, 94, 91, 78, 75, 70, 68, 66, 65, 64], [99, 94, 74, 68, 67, 53], [100, 99, 96, 60, 53], [100, 95, 94, 92, 76, 74, 53], [99, 95, 92, 78, 76, 53], [101, 100, 99, 98, 95, 88, 86, 76, 74, 64, 63], [101, 97, 95, 91, 76, 74, 73, 71, 70, 68, 64], [98, 93, 91, 75, 71, 70, 64], [100, 98, 96, 95, 94, 93, 91, 90, 88, 87, 86, 85, 84, 83, 82, 75], [99, 98, 96, 93, 92, 91, 89, 85, 84, 74, 71, 70], [99, 98, 97, 96, 94, 93, 85, 84, 83, 82, 71, 67], [100, 99, 92, 86, 77, 76, 74, 64], [94, 92, 90, 89, 88, 87, 86, 85, 84, 77, 69], [92, 85, 83, 75, 74, 67], [98, 95, 94, 91, 86, 84, 74, 69], [97, 96, 95, 94, 86, 85, 84, 69], [96, 94, 92, 91, 84, 69], [96, 94, 93, 87, 68], [89, 85, 84, 69], [99, 86, 85, 82], [95, 88, 85, 82], [100, 91, 87], [92, 90, 89], [83, 82], [87, 86], [90, 88], [89, 88], [84, 82], [82], [97], [93], [83], [96], [86], [82], [95], [102], [102], [102], [102], [102], [102], [102], [102], [102], [102], [102], [102], [102], [102], [102], [102], [102], [102], [102], [102], []]
letting durations = [[0], [3, 5, 9], [1, 1, 10], [4, 6, 8], [1, 5, 9], [1, 2, 9], [6, 8, 10], [3, 6, 9], [4, 9, 10], [1, 4, 7], [5, 6, 8], [3, 5, 5], [1, 7, 10], [4, 7, 10], [5, 8, 9], [5, 9, 10], [1, 7, 10], [1, 4, 9], [1, 2, 10], [7, 9, 10], [3, 3, 4], [3, 4, 10], [1, 9, 9], [6, 7, 8], [5, 8, 10], [3, 6, 8], [5, 6, 10], [1, 2, 10], [2, 4, 5], [1, 2, 6], [1, 8, 8], [2, 4, 5], [5, 7, 8], [1, 3, 10], [3, 8, 9], [4, 10, 10], [1, 3, 5], [3, 5, 7], [3, 5, 7], [3, 9, 10], [3, 7, 9], [3, 3, 6], [4, 6, 10], [2, 2, 7], [1, 4, 10], [6, 8, 9], [5, 7, 8], [2, 5, 10], [2, 6, 10], [2, 8, 10], [3, 5, 8], [1, 5, 8], [2, 6, 10], [1, 5, 7], [1, 4, 5], [1, 3, 8], [4, 5, 7], [8, 9, 10], [1, 3, 7], [1, 3, 7], [2, 3, 8], [2, 3, 5], [4, 9, 10], [1, 7, 9], [2, 6, 9], [1, 3, 8], [1, 2, 7], [5, 6, 9], [2, 2, 4], [4, 5, 7], [3, 5, 10], [1, 4, 9], [7, 7, 10], [6, 7, 9], [1, 2, 7], [4, 5, 8], [2, 6, 8], [2, 5, 10], [2, 3, 4], [6, 8, 9], [3, 9, 10], [1, 8, 10], [7, 9, 10], [2, 5, 8], [1, 7, 8], [5, 7, 9], [7, 8, 9], [4, 7, 10], [1, 6, 9], [7, 7, 8], [6, 8, 9], [8, 8, 9], [2, 3, 8], [3, 6, 10], [3, 5, 9], [3, 4, 10], [2, 5, 8], [4, 5, 6], [4, 8, 9], [3, 8, 9], [1, 5, 6], [0]]
letting resourceUsage = [[[0, 0, 0, 0]], [[3, 3, 0, 5], [2, 3, 0, 5], [2, 3, 0, 1]], [[2, 2, 0, 9], [2, 2, 2, 0], [2, 2, 0, 5]], [[4, 4, 0, 2], [3, 4, 7, 0], [3, 4, 0, 1]], [[5, 5, 0, 5], [4, 3, 0, 4], [3, 3, 0, 4]], [[5, 4, 0, 5], [4, 4, 3, 0], [3, 4, 0, 2]], [[5, 3, 0, 4], [4, 3, 0, 2], [4, 3, 0, 1]], [[4, 5, 0, 7], [2, 3, 3, 0], [1, 3, 0, 1]], [[4, 2, 6, 0], [3, 2, 6, 0], [2, 2, 5, 0]], [[3, 3, 0, 8], [3, 3, 0, 7], [3, 3, 0, 6]], [[3, 4, 0, 10], [1, 4, 1, 0], [1, 4, 0, 9]], [[3, 2, 0, 4], [2, 2, 6, 0], [2, 2, 0, 2]], [[3, 5, 2, 0], [3, 5, 1, 0], [1, 5, 0, 5]], [[3, 3, 0, 6], [1, 2, 7, 0], [1, 2, 5, 0]], [[5, 2, 0, 9], [5, 1, 5, 0], [5, 1, 0, 6]], [[5, 2, 0, 6], [4, 1, 0, 5], [4, 1, 3, 0]], [[3, 2, 8, 0], [1, 2, 8, 0], [1, 1, 0, 2]], [[4, 3, 7, 0], [2, 3, 5, 0], [1, 2, 4, 0]], [[4, 3, 2, 0], [4, 2, 1, 0], [4, 2, 0, 4]], [[5, 4, 10, 0], [4, 4, 0, 2], [4, 4, 0, 1]], [[4, 4, 1, 0], [4, 2, 0, 6], [4, 2, 0, 4]], [[3, 2, 0, 9], [3, 2, 0, 8], [2, 2, 0, 8]], [[4, 4, 0, 8], [2, 3, 2, 0], [1, 2, 0, 5]], [[3, 5, 10, 0], [2, 5, 0, 4], [2, 5, 5, 0]], [[3, 1, 4, 0], [3, 1, 2, 0], [3, 1, 0, 3]], [[4, 2, 9, 0], [3, 2, 0, 2], [2, 1, 7, 0]], [[5, 4, 0, 9], [5, 3, 3, 0], [5, 2, 0, 5]], [[5, 5, 0, 9], [4, 4, 0, 4], [2, 4, 3, 0]], [[3, 4, 3, 0], [2, 3, 1, 0], [2, 2, 1, 0]], [[3, 2, 9, 0], [2, 2, 0, 2], [2, 2, 0, 1]], [[4, 4, 3, 0], [4, 4, 0, 3], [4, 2, 1, 0]], [[3, 5, 0, 7], [3, 3, 0, 4], [3, 2, 0, 4]], [[2, 4, 6, 0], [1, 4, 5, 0], [1, 3, 3, 0]], [[1, 2, 2, 0], [1, 2, 0, 3], [1, 2, 1, 0]], [[3, 2, 0, 8], [3, 2, 3, 0], [2, 2, 1, 0]], [[1, 3, 3, 0], [1, 1, 0, 7], [1, 1, 1, 0]], [[2, 2, 0, 9], [2, 2, 0, 8], [2, 1, 0, 9]], [[2, 4, 3, 0], [2, 2, 2, 0], [1, 1, 0, 6]], [[5, 5, 1, 0], [4, 3, 0, 4], [3, 2, 0, 3]], [[4, 4, 3, 0], [2, 2, 1, 0], [2, 2, 0, 1]], [[4, 3, 10, 0], [4, 3, 0, 4], [4, 3, 0, 3]], [[4, 2, 8, 0], [4, 1, 0, 5], [3, 1, 0, 3]], [[4, 1, 0, 8], [4, 1, 0, 6], [4, 1, 0, 3]], [[4, 4, 0, 4], [4, 3, 6, 0], [4, 3, 0, 2]], [[5, 5, 10, 0], [4, 4, 9, 0], [4, 4, 8, 0]], [[5, 1, 0, 7], [4, 1, 0, 6], [3, 1, 0, 5]], [[4, 2, 0, 5], [3, 2, 7, 0], [2, 2, 3, 0]], [[4, 3, 3, 0], [2, 3, 0, 4], [2, 3, 1, 0]], [[3, 4, 0, 2], [2, 4, 0, 2], [2, 4, 0, 1]], [[3, 1, 0, 9], [3, 1, 0, 4], [3, 1, 3, 0]], [[4, 5, 7, 0], [2, 4, 3, 0], [2, 2, 2, 0]], [[5, 3, 0, 9], [4, 2, 3, 0], [4, 1, 3, 0]], [[4, 5, 5, 0], [4, 5, 4, 0], [4, 5, 3, 0]], [[3, 5, 10, 0], [3, 5, 8, 0], [3, 5, 0, 3]], [[5, 3, 0, 4], [5, 2, 9, 0], [5, 1, 7, 0]], [[2, 4, 0, 9], [2, 4, 0, 8], [2, 2, 0, 7]], [[3, 2, 0, 5], [3, 2, 0, 4], [3, 2, 5, 0]], [[3, 3, 0, 9], [2, 2, 3, 0], [2, 2, 1, 0]], [[4, 3, 2, 0], [4, 3, 1, 0], [3, 3, 0, 9]], [[3, 5, 0, 6], [1, 4, 0, 6], [1, 3, 0, 5]], [[4, 4, 0, 6], [3, 3, 0, 5], [3, 3, 2, 0]], [[4, 4, 0, 7], [3, 2, 0, 7], [1, 2, 5, 0]], [[4, 3, 8, 0], [4, 3, 0, 4], [3, 3, 8, 0]], [[5, 4, 0, 6], [4, 2, 7, 0], [4, 2, 0, 1]], [[3, 3, 0, 6], [3, 2, 0, 2], [3, 2, 0, 1]], [[2, 2, 7, 0], [2, 2, 0, 6], [2, 2, 2, 0]], [[3, 4, 7, 0], [2, 3, 5, 0], [2, 3, 4, 0]], [[3, 2, 5, 0], [2, 2, 4, 0], [2, 1, 3, 0]], [[4, 5, 5, 0], [4, 3, 0, 3], [4, 3, 0, 2]], [[3, 3, 0, 3], [3, 3, 4, 0], [3, 3, 0, 2]], [[3, 5, 8, 0], [3, 4, 7, 0], [2, 3, 5, 0]], [[3, 2, 0, 9], [2, 2, 0, 7], [2, 2, 0, 6]], [[4, 4, 0, 6], [2, 3, 9, 0], [2, 3, 0, 4]], [[3, 5, 0, 2], [1, 4, 3, 0], [1, 3, 0, 1]], [[3, 4, 5, 0], [3, 3, 5, 0], [3, 3, 4, 0]], [[5, 2, 7, 0], [4, 2, 5, 0], [4, 2, 3, 0]], [[3, 4, 0, 8], [3, 4, 5, 0], [3, 4, 4, 0]], [[5, 3, 0, 10], [4, 3, 4, 0], [4, 1, 0, 4]], [[4, 2, 9, 0], [2, 1, 5, 0], [2, 1, 4, 0]], [[1, 3, 5, 0], [1, 3, 3, 0], [1, 3, 1, 0]], [[4, 5, 7, 0], [4, 4, 0, 3], [4, 3, 5, 0]], [[5, 4, 9, 0], [3, 4, 9, 0], [3, 4, 8, 0]], [[2, 4, 0, 8], [1, 3, 2, 0], [1, 3, 1, 0]], [[2, 2, 9, 0], [2, 2, 8, 0], [2, 2, 0, 1]], [[1, 5, 4, 0], [1, 4, 2, 0], [1, 4, 0, 5]], [[3, 4, 0, 9], [2, 3, 8, 0], [2, 2, 0, 9]], [[4, 4, 9, 0], [3, 3, 8, 0], [1, 3, 8, 0]], [[4, 4, 0, 4], [2, 4, 7, 0], [1, 3, 0, 1]], [[3, 5, 6, 0], [3, 5, 0, 5], [3, 5, 0, 2]], [[5, 4, 0, 2], [5, 2, 4, 0], [5, 2, 3, 0]], [[4, 5, 5, 0], [4, 4, 4, 0], [4, 4, 0, 3]], [[2, 4, 8, 0], [2, 4, 0, 3], [2, 4, 0, 2]], [[3, 5, 10, 0], [2, 4, 9, 0], [2, 4, 0, 4]], [[2, 2, 7, 0], [2, 1, 4, 0], [2, 1, 0, 9]], [[5, 3, 1, 0], [3, 3, 0, 5], [2, 1, 0, 5]], [[3, 1, 0, 4], [2, 1, 3, 0], [1, 1, 2, 0]], [[4, 3, 0, 9], [4, 3, 3, 0], [4, 2, 0, 3]], [[5, 3, 0, 10], [3, 3, 4, 0], [2, 3, 2, 0]], [[5, 5, 4, 0], [4, 4, 2, 0], [3, 4, 2, 0]], [[5, 1, 0, 2], [2, 1, 0, 2], [2, 1, 0, 1]], [[4, 2, 6, 0], [4, 1, 5, 0], [3, 1, 5, 0]], [[0, 0, 0, 0]]]
